p ds 20 5
1 2
1 5
1 11
1 19
1 20
2 6
2 11
2 17
2 20
3 7
3 11
3 12
3 14
3 15
3 16
3 19
3 20
4 5
4 7
4 16
4 17
4 19
5 6
5 7
5 9
5 11
5 13
5 14
5 15
5 16
5 18
5 19
5 20
6 11
6 14
6 15
6 20
7 8
7 11
7 13
7 14
7 16
7 18
7 20
8 9
8 13
8 14
8 18
8 19
9 12
9 13
9 17
9 18
10 11
10 12
10 14
10 17
11 16
11 17
12 16
12 19
13 20
14 15
14 16
15 19
15 20
16 20
17 20
